language Essence 1.3

letting bot_end be [1264, 259, 110, 249, 46, 1428, 1316, 1262, 1450, 1282, 1119, 81, 1432, 28; int(1..14)]
letting bot_start be [49, 1453, 1269, 1232, 1401, 386, 389, 306, 203, 84, 86, 1261, 447, 1006; int(1..14)]
letting buffer_col be 2
letting buffer_row be 2
letting corridor_size be 1
letting n_shelves_col be 8
letting n_shelves_row be 24
letting shelf_col_size be 2
letting shelf_row_size be 1
